[2026-03-23T16:34:44.379Z] Pipeline "set_ds_1_ds_1_s008_g001" → 2026_03_23_16_34_44_set_ds_1_ds_1_s008_g001_max.sol
Set parameter WLSAccessID
Set parameter WLSSecret
Set parameter LicenseID to value 2792458
Set parameter LogFile to value "gurobi.log"
Using license file /root/gurobi.lic
Academic license 2792458 - for non-commercial use only - registered to an___@studenti.unipg.it

Gurobi Optimizer version 13.0.1 build v13.0.1rc0 (linux64 - "Ubuntu 24.04.4 LTS")
Copyright (c) 2026, Gurobi Optimization, LLC

Warning: Duplicate section found (read 'binary') - Is a variable name equal to an LP file format keyword?
Warning: Duplicate section found (read 'binary') - Is a variable name equal to an LP file format keyword?
Warning: Duplicate section found (read 'binary') - Is a variable name equal to an LP file format keyword?
Warning: Duplicate section found (read 'binary') - Is a variable name equal to an LP file format keyword?
Warning: Duplicate section found (read 'binary') - Is a variable name equal to an LP file format keyword?
Warning: Duplicate section found (read 'binary') - Is a variable name equal to an LP file format keyword?
Warning: Duplicate section found (read 'binary') - Is a variable name equal to an LP file format keyword?
Warning: Duplicate section found (read 'binary') - Is a variable name equal to an LP file format keyword?
Warning: Duplicate section found (read 'binary') - Is a variable name equal to an LP file format keyword?
Warning: Duplicate section found (read 'binary') - Is a variable name equal to an LP file format keyword?
Warning: Further warnings of this type will be omitted.
Read LP format model from file /root/bgw/data/uploads/2026_03_23_16_34_44_set_ds_1_ds_1_s008_g001_max.lp
Reading time = 0.00 seconds
: 1812 rows, 207 columns, 5559 nonzeros

Using Gurobi shared library /opt/gurobi1301/linux64/lib/libgurobi.so.13.0.1

CPU model: AMD EPYC-Genoa Processor, instruction set [SSE2|AVX|AVX2|AVX512]
Thread count: 16 physical cores, 16 logical processors, using up to 16 threads

Academic license 2792458 - for non-commercial use only - registered to an___@studenti.unipg.it
Optimize a model with 1812 rows, 207 columns and 5559 nonzeros (Max)
Model fingerprint: 0x6a1e7980
Model has 6 linear objective coefficients
Variable types: 24 continuous, 183 integer (183 binary)
Coefficient statistics:
  Matrix range     [1e+00, 2e+01]
  Objective range  [1e+00, 1e+00]
  Bounds range     [1e+00, 1e+00]
  RHS range        [1e+00, 2e+01]

Found heuristic solution: objective 6.0000000
Presolve removed 159 rows and 41 columns
Presolve time: 0.01s
Presolved: 1653 rows, 166 columns, 5034 nonzeros
Variable types: 0 continuous, 166 integer (161 binary)
Found heuristic solution: objective 11.0000000

Root relaxation: objective 2.700000e+01, 56 iterations, 0.00 seconds (0.00 work units)

    Nodes    |    Current Node    |     Objective Bounds      |     Work
 Expl Unexpl |  Obj  Depth IntInf | Incumbent    BestBd   Gap | It/Node Time

     0     0   27.00000    0   14   11.00000   27.00000   145%     -    0s
H    0     0                      13.0000000   27.00000   108%     -    0s
H    0     0                      14.0000000   27.00000  92.9%     -    0s
H    0     0                      15.0000000   27.00000  80.0%     -    0s
H    0     0                      16.0000000   27.00000  68.8%     -    0s
     0     0   27.00000    0   14   16.00000   27.00000  68.8%     -    0s
H    0     0                      17.0000000   27.00000  58.8%     -    0s
     0     0   27.00000    0   14   17.00000   27.00000  58.8%     -    0s
     0     0   27.00000    0   12   17.00000   27.00000  58.8%     -    0s
     0     0   27.00000    0    7   17.00000   27.00000  58.8%     -    0s
     0     0   27.00000    0   11   17.00000   27.00000  58.8%     -    0s
     0     0   27.00000    0   11   17.00000   27.00000  58.8%     -    0s
     0     0   27.00000    0   14   17.00000   27.00000  58.8%     -    0s
     0     0   27.00000    0   14   17.00000   27.00000  58.8%     -    0s
     0     0   27.00000    0   14   17.00000   27.00000  58.8%     -    0s
     0     0   26.75000    0   13   17.00000   26.75000  57.4%     -    0s
     0     0   26.00000    0   12   17.00000   26.00000  52.9%     -    0s
     0     0   26.00000    0   12   17.00000   26.00000  52.9%     -    0s
     0     0   25.81250    0   13   17.00000   25.81250  51.8%     -    0s
     0     0   25.25000    0   13   17.00000   25.25000  48.5%     -    0s
     0     0   25.25000    0   13   17.00000   25.25000  48.5%     -    0s
     0     0   25.00000    0   12   17.00000   25.00000  47.1%     -    0s
     0     0   25.00000    0   13   17.00000   25.00000  47.1%     -    0s
     0     0   25.00000    0   13   17.00000   25.00000  47.1%     -    0s
     0     0   25.00000    0   13   17.00000   25.00000  47.1%     -    0s
     0     0   25.00000    0   13   17.00000   25.00000  47.1%     -    0s
     0     2   25.00000    0   13   17.00000   25.00000  47.1%     -    0s

Cutting planes:
  Gomory: 5
  Lift-and-project: 6
  Cover: 1
  MIR: 2
  Zero half: 3
  Mod-K: 2

Explored 174 nodes (5527 simplex iterations) in 0.24 seconds (0.17 work units)
Thread count was 16 (of 16 available processors)

Solution count 7: 17 16 15 ... 6

Optimal solution found (tolerance 1.00e-04)
Best objective 1.700000000000e+01, best bound 1.700000000000e+01, gap 0.0000%

Wrote result file '/root/bgw/data/results/2026_03_23_16_34_44_set_ds_1_ds_1_s008_g001_max.sol'

